17	4
33	23	24	27	
0	0	0	0	0	3	2	3	4	
7	6	5	4	0	3	8	10	13	
9	5	4	6	5	3	5	9	17	
1	4	7	1	4	3	6	16	17	
1	5	2	0	10	3	10	17	17	
225	8	8	4	5	2	7	17	
200	7	0	7	0	1	17	
75	7	7	8	5	2	11	12	
25	1	0	6	4	2	14	17	
250	7	2	0	0	1	17	
225	6	8	8	6	1	17	
250	5	4	2	2	2	15	17	
2	1	9	1	10	1	17	
1	4	7	0	7	1	17	
5	3	0	4	0	1	17	
3	0	0	0	7	1	17	
0	0	0	0	0	0	
